14
0 38 13 73 10 76 6 80 65 17 2 77 72 7 
38 0 26 51 21 19 85 12 29 30 15 51 69 88 
13 26 0 88 95 97 87 14 10 8 64 62 23 58 
73 51 88 0 2 1 61 82 9 89 14 48 73 31 
10 21 95 2 0 72 4 71 22 50 58 4 69 25 
76 19 97 1 72 0 44 77 27 53 81 42 83 16 
6 85 87 61 4 44 0 65 69 26 99 88 8 27 
80 12 14 82 71 77 65 0 26 23 10 68 24 28 
65 29 10 9 22 27 69 26 0 38 58 84 39 9 
17 30 8 89 50 53 26 23 38 0 33 35 11 24 
2 15 64 14 58 81 99 10 58 33 0 16 88 26 
77 51 62 48 4 42 88 68 84 35 16 0 72 93 
72 69 23 73 69 83 8 24 39 11 88 72 0 75 
7 88 58 31 25 16 27 28 9 24 26 93 75 0 
